NAME (null)_copy
ROWS
 N  OBJ
 L  BOUND402
 L  BOUND502
 L  BOUND602
 L  BOUND702
 L  BOUND802
 E  REGEN102
 E  REGEN802
 L  TFLOW102
 L  TFLOW202
 E  YIELD202
 L  BOUND403
 L  BOUND503
 L  BOUND603
 L  BOUND703
 L  BOUND803
 E  REGEN103
 E  REGEN503
 E  REGEN603
 E  REGEN703
 E  REGEN803
 L  TFLOW103
 L  TFLOW203
 E  YIELD303
 L  BOUND304
 L  BOUND404
 L  BOUND504
 L  BOUND604
 L  BOUND704
 L  BOUND804
 E  REGEN104
 E  REGEN504
 E  REGEN604
 E  REGEN704
 E  REGEN804
 L  TFLOW104
 L  TFLOW204
 E  YIELD404
 L  BOUND305
 L  BOUND405
 L  BOUND505
 L  BOUND605
 L  BOUND705
 L  BOUND805
 E  REGEN805
 L  TFLOW105
 L  TFLOW205
 E  YIELD505
 L  BOUND306
 L  BOUND406
 L  BOUND506
 L  BOUND606
 L  BOUND706
 L  BOUND806
 E  REGEN506
 E  REGEN606
 E  REGEN706
 E  REGEN806
 L  TFLOW106
 L  TFLOW206
 E  YIELD606
 L  BOUND307
 L  BOUND407
 L  BOUND507
 L  BOUND607
 L  BOUND707
 L  BOUND807
 L  TFLOW107
 L  TFLOW207
 E  YIELD707
COLUMNS
    CLASS301  OBJ       -16
    CLASS301  REGEN503  8.7875625640000010e-01
    CLASS301  REGEN103  0.0586637436
    CLASS301  BOUND402  0.93742
    CLASS301  REGEN102  -0.93742
    CLASS301  TFLOW102  14.4
    CLASS301  TFLOW202  -17.6
    CLASS401  OBJ       -107
    CLASS401  REGEN603  8.7875625640000010e-01
    CLASS401  REGEN103  0.0586637436
    CLASS401  BOUND502  0.93742
    CLASS401  REGEN102  -0.93742
    CLASS401  TFLOW102  96.3
    CLASS401  TFLOW202  -117.7
    CLASS501  OBJ       -217
    CLASS501  REGEN703  8.7875625640000010e-01
    CLASS501  REGEN103  0.0586637436
    CLASS501  BOUND602  0.93742
    CLASS501  REGEN102  -0.93742
    CLASS501  TFLOW102  195.3
    CLASS501  TFLOW202  -238.7
    CLASS601  OBJ       -275
    CLASS601  REGEN803  8.7875625640000010e-01
    CLASS601  REGEN103  0.0586637436
    CLASS601  BOUND702  0.93742
    CLASS601  REGEN102  -0.93742
    CLASS601  TFLOW102  247.5
    CLASS601  TFLOW202  -302.5
    CLASS701  OBJ       -298
    CLASS701  REGEN102  -0.93742
    CLASS701  REGEN802  0.93742
    CLASS701  TFLOW102  268.2
    CLASS701  TFLOW202  -327.8
    CLASS801  OBJ       -306
    CLASS801  REGEN102  -0.93742
    CLASS801  REGEN802  0.93742
    CLASS801  TFLOW102  275.4
    CLASS801  TFLOW202  -336.6
    CLASS302  REGEN504  8.7875625640000010e-01
    CLASS302  REGEN104  0.0586637436
    CLASS302  BOUND403  0.93742
    CLASS302  YIELD202  16
    CLASS302  REGEN103  -0.93742
    CLASS302  TFLOW103  14.4
    CLASS302  TFLOW203  -17.6
    CLASS402  BOUND402  1
    CLASS402  YIELD202  107
    CLASS402  REGEN103  -0.93742
    CLASS402  REGEN503  0.93742
    CLASS402  TFLOW103  96.3
    CLASS402  TFLOW203  -117.7
    CLASS502  BOUND502  1
    CLASS502  YIELD202  217
    CLASS502  REGEN103  -0.93742
    CLASS502  REGEN603  0.93742
    CLASS502  TFLOW103  195.3
    CLASS502  TFLOW203  -238.7
    CLASS602  BOUND602  1
    CLASS602  YIELD202  275
    CLASS602  REGEN103  -0.93742
    CLASS602  REGEN703  0.93742
    CLASS602  TFLOW103  247.5
    CLASS602  TFLOW203  -302.5
    CLASS702  BOUND702  1
    CLASS702  YIELD202  298
    CLASS702  REGEN103  -0.93742
    CLASS702  REGEN803  0.93742
    CLASS702  TFLOW103  268.2
    CLASS702  TFLOW203  -327.8
    CLASS802  BOUND802  1
    CLASS802  YIELD202  306
    CLASS802  REGEN103  -0.93742
    CLASS802  REGEN803  0.93742
    CLASS802  TFLOW103  275.4
    CLASS802  TFLOW203  -336.6
    STATE802  BOUND802  -1
    STATE802  REGEN802  1
    STATE802  REGEN103  -0.06258
    STATE802  REGEN803  -0.93742
    BALAN202  OBJ       -0.905063
    BALAN202  TFLOW102  -1
    BALAN202  TFLOW202  1
    BALAN202  YIELD202  -1
    PNLTY202  OBJ       50
    PNLTY202  TFLOW102  -1
    CLASS303  OBJ       2.1094932118528568e+01
    CLASS303  REGEN606  8.2376368987448811e-01
    CLASS303  BOUND505  8.7875625640000010e-01
    CLASS303  BOUND404  0.93742
    CLASS303  BOUND307  5.1551131712345467e-02
    CLASS303  YIELD303  16
    CLASS303  REGEN104  -0.93742
    CLASS303  TFLOW104  14.4
    CLASS303  TFLOW204  -17.6
    CLASS403  BOUND403  1
    CLASS403  YIELD303  107
    CLASS403  REGEN104  -0.93742
    CLASS403  REGEN504  0.93742
    CLASS403  TFLOW104  96.3
    CLASS403  TFLOW204  -117.7
    CLASS503  BOUND503  1
    CLASS503  YIELD303  217
    CLASS503  REGEN104  -0.93742
    CLASS503  REGEN604  0.93742
    CLASS503  TFLOW104  195.3
    CLASS503  TFLOW204  -238.7
    CLASS603  BOUND603  1
    CLASS603  YIELD303  275
    CLASS603  REGEN104  -0.93742
    CLASS603  REGEN704  0.93742
    CLASS603  TFLOW104  247.5
    CLASS603  TFLOW204  -302.5
    CLASS703  BOUND703  1
    CLASS703  YIELD303  298
    CLASS703  REGEN104  -0.93742
    CLASS703  REGEN804  0.93742
    CLASS703  TFLOW104  268.2
    CLASS703  TFLOW204  -327.8
    CLASS803  BOUND803  1
    CLASS803  YIELD303  306
    CLASS803  REGEN104  -0.93742
    CLASS803  REGEN804  0.93742
    CLASS803  TFLOW104  275.4
    CLASS803  TFLOW204  -336.6
    STATE503  BOUND503  -1
    STATE503  REGEN503  1
    STATE503  REGEN104  -0.06258
    STATE503  REGEN604  -0.93742
    STATE603  BOUND603  -1
    STATE603  REGEN603  1
    STATE603  REGEN104  -0.06258
    STATE603  REGEN704  -0.93742
    STATE703  BOUND703  -1
    STATE703  REGEN703  1
    STATE703  REGEN104  -0.06258
    STATE703  REGEN804  -0.93742
    STATE803  BOUND803  -1
    STATE803  REGEN803  1
    STATE803  REGEN104  -0.06258
    STATE803  REGEN804  -0.93742
    BALAN303  OBJ       -0.819139
    BALAN303  TFLOW103  -1
    BALAN303  TFLOW203  1
    BALAN303  YIELD303  -1
    PNLTY303  OBJ       45.25
    PNLTY303  TFLOW103  -1
    CLASS304  OBJ       -1.7203577506286612e+02
    CLASS304  REGEN506  8.7875625640000010e-01
    CLASS304  BOUND405  0.93742
    CLASS304  BOUND307  -8.2376368987448811e-01
    CLASS304  BOUND304  1
    CLASS304  YIELD404  16
    CLASS304  TFLOW105  14.4
    CLASS304  TFLOW205  -17.6
    CLASS404  OBJ       -1.7203577506286612e+02
    CLASS404  REGEN606  8.7875625640000010e-01
    CLASS404  BOUND505  0.93742
    CLASS404  BOUND307  -8.2376368987448811e-01
    CLASS404  BOUND404  1
    CLASS404  YIELD404  107
    CLASS404  TFLOW105  96.3
    CLASS404  TFLOW205  -117.7
    CLASS504  OBJ       -1.7203577506286612e+02
    CLASS504  REGEN706  8.7875625640000010e-01
    CLASS504  BOUND605  0.93742
    CLASS504  BOUND307  -8.2376368987448811e-01
    CLASS504  BOUND504  1
    CLASS504  YIELD404  217
    CLASS504  TFLOW105  195.3
    CLASS504  TFLOW205  -238.7
    CLASS604  OBJ       -1.7203577506286612e+02
    CLASS604  REGEN806  8.7875625640000010e-01
    CLASS604  BOUND705  0.93742
    CLASS604  BOUND307  -8.2376368987448811e-01
    CLASS604  BOUND604  1
    CLASS604  YIELD404  275
    CLASS604  TFLOW105  247.5
    CLASS604  TFLOW205  -302.5
    CLASS704  OBJ       -1.8236470837796054e+02
    CLASS704  BOUND307  -8.2376368987448811e-01
    CLASS704  BOUND704  1
    CLASS704  YIELD404  298
    CLASS704  REGEN805  0.93742
    CLASS704  TFLOW105  268.2
    CLASS704  TFLOW205  -327.8
    CLASS804  OBJ       -1.8236470837796054e+02
    CLASS804  BOUND307  -8.2376368987448811e-01
    CLASS804  BOUND804  1
    CLASS804  YIELD404  306
    CLASS804  REGEN805  0.93742
    CLASS804  TFLOW105  275.4
    CLASS804  TFLOW205  -336.6
    STATE304  OBJ       -2.2503181197892690e+01
    STATE304  REGEN506  -8.7875625640000010e-01
    STATE304  BOUND405  -0.93742
    STATE304  REGEN104  -6.6757696656781371e-02
    STATE304  REGEN102  1.1379719833764814e+00
    STATE304  REGEN103  -0.0712142867197002
    STATE304  BOUND307  -5.4992566525512009e-02
    STATE304  BOUND304  -1
    STATE504  OBJ       -2.2503181197892690e+01
    STATE504  REGEN706  -8.7875625640000010e-01
    STATE504  BOUND605  -0.93742
    STATE504  BOUND307  -5.4992566525512009e-02
    STATE504  BOUND504  -1
    STATE504  REGEN504  1
    STATE604  OBJ       -2.2503181197892690e+01
    STATE604  REGEN806  -8.7875625640000010e-01
    STATE604  BOUND705  -0.93742
    STATE604  BOUND307  -5.4992566525512009e-02
    STATE604  BOUND604  -1
    STATE604  REGEN604  1
    STATE704  OBJ       -1.2174247882798285e+01
    STATE704  BOUND307  -5.4992566525512009e-02
    STATE704  BOUND704  -1
    STATE704  REGEN704  1
    STATE704  REGEN805  -0.93742
    STATE804  OBJ       -1.2174247882798285e+01
    STATE804  BOUND307  -5.4992566525512009e-02
    STATE804  BOUND804  -1
    STATE804  REGEN804  1
    STATE804  REGEN805  -0.93742
    BALAN404  OBJ       -0.741372
    BALAN404  TFLOW104  -1
    BALAN404  TFLOW204  1
    BALAN404  YIELD404  -1
    PNLTY404  OBJ       40.96
    PNLTY404  TFLOW104  -1
    CLASS305  OBJ       6.5895295398666775e+01
    CLASS305  BOUND406  0.93742
    CLASS305  BOUND507  8.7875625640000010e-01
    CLASS305  BOUND305  1
    CLASS305  YIELD505  16
    CLASS305  TFLOW106  14.4
    CLASS305  TFLOW206  -17.6
    CLASS405  OBJ       -1.6505166690786842e+02
    CLASS405  BOUND405  1
    CLASS405  YIELD505  107
    CLASS405  REGEN506  0.93742
    CLASS405  TFLOW106  96.3
    CLASS405  TFLOW206  -117.7
    CLASS505  OBJ       -1.6505166690786842e+02
    CLASS505  BOUND505  1
    CLASS505  YIELD505  217
    CLASS505  REGEN606  0.93742
    CLASS505  TFLOW106  195.3
    CLASS505  TFLOW206  -238.7
    CLASS605  OBJ       -1.6505166690786842e+02
    CLASS605  BOUND605  1
    CLASS605  YIELD505  275
    CLASS605  REGEN706  0.93742
    CLASS605  TFLOW106  247.5
    CLASS605  TFLOW206  -302.5
    CLASS705  OBJ       -1.6505166690786842e+02
    CLASS705  BOUND705  1
    CLASS705  YIELD505  298
    CLASS705  REGEN806  0.93742
    CLASS705  TFLOW106  268.2
    CLASS705  TFLOW206  -327.8
    CLASS805  OBJ       -1.6505166690786842e+02
    CLASS805  BOUND805  1
    CLASS805  YIELD505  306
    CLASS805  REGEN806  0.93742
    CLASS805  TFLOW106  275.4
    CLASS805  TFLOW206  -336.6
    STATE305  OBJ       -2.5495240404864938e+02
    STATE305  BOUND406  -0.93742
    STATE305  BOUND507  -8.7875625640000010e-01
    STATE305  BOUND307  -5.8663743600000005e-02
    STATE305  REGEN103  1.1379719833764814e+00
    STATE305  REGEN104  -0.0712142867197002
    STATE305  BOUND305  -1
    STATE805  OBJ       -11.0184691121316
    STATE805  BOUND805  -1
    STATE805  REGEN805  1
    STATE805  REGEN806  -0.93742
    BALAN505  OBJ       -0.670989
    BALAN505  TFLOW105  -1
    BALAN505  TFLOW205  1
    BALAN505  YIELD505  -1
    PNLTY505  OBJ       37.07
    PNLTY505  TFLOW105  -1
    CLASS306  OBJ       5.9638660399999992e+01
    CLASS306  BOUND407  0.93742
    CLASS306  BOUND306  1
    CLASS306  YIELD606  16
    CLASS306  TFLOW107  14.4
    CLASS306  TFLOW207  -17.6
    CLASS406  OBJ       8.7009449560000007e+01
    CLASS406  BOUND507  0.93742
    CLASS406  BOUND406  1
    CLASS406  YIELD606  107
    CLASS406  TFLOW107  96.3
    CLASS406  TFLOW207  -117.7
    CLASS506  OBJ       1.1405589139999998e+02
    CLASS506  BOUND607  0.93742
    CLASS506  BOUND506  1
    CLASS506  YIELD606  217
    CLASS506  TFLOW107  195.3
    CLASS506  TFLOW207  -238.7
    CLASS606  OBJ       1.2478185104000002e+02
    CLASS606  BOUND707  0.93742
    CLASS606  BOUND606  1
    CLASS606  YIELD606  275
    CLASS606  TFLOW107  247.5
    CLASS606  TFLOW207  -302.5
    CLASS706  OBJ       1.2851184522000003e+02
    CLASS706  BOUND807  0.93742
    CLASS706  BOUND706  1
    CLASS706  YIELD606  298
    CLASS706  TFLOW107  268.2
    CLASS706  TFLOW207  -327.8
    CLASS806  OBJ       1.2851184522000003e+02
    CLASS806  BOUND807  0.93742
    CLASS806  BOUND806  1
    CLASS806  YIELD606  306
    CLASS806  TFLOW107  275.4
    CLASS806  TFLOW207  -336.6
    STATE306  OBJ       -2.4460165014004627e+02
    STATE306  REGEN104  1.1379719833764814e+00
    STATE306  BOUND307  -0.06258
    STATE306  BOUND407  -0.93742
    STATE306  BOUND306  -1
    STATE506  OBJ       -2.7341089139999997e+02
    STATE506  BOUND607  -0.93742
    STATE506  BOUND506  -1
    STATE506  REGEN506  1
    STATE606  OBJ       -284.13685104
    STATE606  BOUND707  -0.93742
    STATE606  BOUND606  -1
    STATE606  REGEN606  1
    STATE706  OBJ       -287.86684522
    STATE706  BOUND807  -0.93742
    STATE706  BOUND706  -1
    STATE706  REGEN706  1
    STATE806  OBJ       -287.86684522
    STATE806  BOUND807  -0.93742
    STATE806  BOUND806  -1
    STATE806  REGEN806  1
    BALAN606  OBJ       -0.607287
    BALAN606  TFLOW106  -1
    BALAN606  TFLOW206  1
    BALAN606  YIELD606  -1
    PNLTY606  OBJ       33.55
    PNLTY606  TFLOW106  -1
    CLASS307  OBJ       198.203
    CLASS307  BOUND307  1
    CLASS307  YIELD707  16
    CLASS407  OBJ       222.975
    CLASS407  BOUND407  1
    CLASS407  YIELD707  107
    CLASS507  OBJ       252.173
    CLASS507  BOUND507  1
    CLASS507  YIELD707  217
    CLASS607  OBJ       281.025
    CLASS607  BOUND607  1
    CLASS607  YIELD707  275
    CLASS707  OBJ       292.467
    CLASS707  BOUND707  1
    CLASS707  YIELD707  298
    CLASS807  OBJ       296.446
    CLASS807  BOUND807  1
    CLASS807  YIELD707  306
    BALAN707  OBJ       -0.549633
    BALAN707  TFLOW107  -1
    BALAN707  TFLOW207  1
    BALAN707  YIELD707  -1
    PNLTY707  OBJ       30.36
    PNLTY707  TFLOW107  -1
RHS
    RHS1      OBJ       4.4674901621751584e+00
    RHS1      BOUND402  1.31613768
    RHS1      BOUND502  1.8785896800000002e+00
    RHS1      BOUND602  9.1567185600000016e+00
    RHS1      BOUND702  1.5359626700000002e+01
    RHS1      REGEN102  5.92864146
    RHS1      REGEN802  60.7541902
    RHS1      BOUND403  1.0984453205000001e-01
    RHS1      REGEN103  1.7556298547172
    RHS1      REGEN503  1.2337737839856
    RHS1      REGEN603  1.7610275378256002e+00
    RHS1      REGEN703  8.5836911125152024e+00
    RHS1      REGEN803  1.4398421261114002e+01
    RHS1      BOUND404  1.9852704925975162e-01
    RHS1      REGEN104  2.0127279348337392e-02
    RHS1      REGEN504  1.0297046123431101e-01
    RHS1      BOUND505  1.8610322651707636e-01
    RHS1      REGEN606  1.7445688660163775e-01
    RHS1      BOUND307  1.0917511963530491e-02
BOUNDS
 UP BND1      CLASS301  1.404
 UP BND1      CLASS401  2.004
 UP BND1      CLASS501  9.768
 UP BND1      CLASS601  16.385
 UP BND1      CLASS701  2.815
 UP BND1      CLASS801  61.995
 UP BND1      CLASS302  0.1171775
 UP BND1      CLASS402  1.31845381768
 UP BND1      CLASS502  1.8814682696800002e+00
 UP BND1      CLASS602  9.1668752785600010e+00
 UP BND1      CLASS702  1.5375986326700001e+01
 UP BND1      CLASS802  76.1909307169
 UP BND1      STATE802  6.0815944390199995e+01
 UP BND1      BALAN202  2.9368279239299998e+04
 UP BND1      CLASS303  0.2117802577924
 UP BND1      CLASS403  1.1095437658205001e-01
 UP BND1      CLASS503  1.2360075577695857e+00
 UP BND1      CLASS603  1.7637885653634258e+00
 UP BND1      CLASS703  8.0015239656264129e+01
 UP BND1      CLASS803  8.0015239656264129e+01
 UP BND1      STATE503  1.2360075577695857e+00
 UP BND1      STATE603  1.7637885653634258e+00
 UP BND1      STATE703  8.5932748036277182e+00
 UP BND1      STATE803  7.1422964852636412e+01
 UP BND1      BALAN303  3.4064125945602755e+04
 UP BND1      CLASS304  8.3033183186024814e+01
 UP BND1      CLASS404  1.9972557630901136e-01
 UP BND1      CLASS504  1.0407343169554532e-01
 UP BND1      CLASS604  1.1587207848043650e+00
 UP BND1      CLASS704  7.6660421795518118e+01
 UP BND1      CLASS804  7.6660421795518118e+01
 LO BND1      STATE304  5.2036209441525036e+00
 UP BND1      STATE304  8.3033183186024814e+01
 UP BND1      STATE504  1.0407343169554532e-01
 UP BND1      STATE604  1.1587207848043650e+00
 UP BND1      STATE704  1.6534732569429826e+00
 UP BND1      STATE804  7.5007948538575135e+01
 UP BND1      BALAN404  5.4006174362677324e+04
 UP BND1      CLASS305  1.1209319024514009e+02
 UP BND1      CLASS405  77.8370291622434
 UP BND1      CLASS505  1.8728932974359344e-01
 UP BND1      CLASS605  0.0976230963400381
 UP BND1      CLASS705  1.0862706180913078e+00
 UP BND1      CLASS805  72.9483457976459
 LO BND1      STATE305  3.4355402517757527e-01
 UP BND1      STATE305  1.1209319024514009e+02
 UP BND1      STATE805  71.8630751795546
 UP BND1      BALAN505  5.2792091430896893e+04
 UP BND1      CLASS306  4.3395193987118955e+02
 UP BND1      CLASS406  1.0507846097959923e+02
 UP BND1      CLASS506  72.9660504572702
 UP BND1      CLASS606  1.7563134348823939e-01
 UP BND1      CLASS706  68.4738773206003
 UP BND1      CLASS806  68.4738773206003
 LO BND1      STATE306  3.3751943307408827e-01
 UP BND1      STATE306  4.3395193987118955e+02
 UP BND1      STATE506  72.9660504572702
 UP BND1      STATE606  1.7563134348823939e-01
 UP BND1      STATE706  9.1576422971078528e-02
 UP BND1      STATE806  6.8383300897629212e+01
 UP BND1      BALAN606  3.6117648234461114e+04
 UP BND1      CLASS307  2.3849520460852187e+02
 UP BND1      CLASS407  4.0679529005405055e+02
 UP BND1      CLASS507  9.8502713471495923e+01
 UP BND1      CLASS607  6.8399897599654224e+01
 UP BND1      CLASS707  1.6470291401274537e-01
 UP BND1      CLASS807  6.4188844657877127e+01
 UP BND1      BALAN707  8.2968117916394185e+04
ENDATA
